num_intervals = 144;
max_energy = 10;
power = 10;
init_energy = 10;
max_demand = power + 1;
loads = [
0.5, 0.2, 0.7, 5.9, 0.8, 1.2, 0.5, 0.2, 0.7, 5.9, 0.8, 1.2, 0.5, 0.2, 0.7, 5.9, 0.8, 1.2, 0.5, 0.2, 0.7, 5.9, 0.8, 1.2,
0.5, 0.2, 0.7, 5.9, 0.8, 1.2, 0.5, 0.2, 0.7, 5.9, 0.8, 1.2, 0.5, 0.2, 0.7, 5.9, 0.8, 1.2, 0.5, 0.2, 0.7, 5.9, 0.8, 1.2,
0.5, 0.2, 0.7, 5.9, 0.8, 1.2, 0.5, 0.2, 0.7, 5.9, 0.8, 1.2, 0.5, 0.2, 0.7, 5.9, 0.8, 1.2, 0.5, 0.2, 0.7, 5.9, 0.8, 1.2,
0.5, 0.2, 0.7, 5.9, 0.8, 1.2, 0.5, 0.2, 0.7, 5.9, 0.8, 1.2, 0.5, 0.2, 0.7, 5.9, 0.8, 1.2, 0.5, 0.2, 0.7, 5.9, 0.8, 1.2,
0.5, 0.2, 0.7, 5.9, 0.8, 1.2, 0.5, 0.2, 0.7, 5.9, 0.8, 1.2, 0.5, 0.2, 0.7, 5.9, 0.8, 1.2, 0.5, 0.2, 0.7, 5.9, 0.8, 1.2,
0.5, 0.2, 0.7, 5.9, 0.8, 1.2, 0.5, 0.2, 0.7, 5.9, 0.8, 1.2, 0.5, 0.2, 0.7, 5.9, 0.8, 1.2, 0.5, 0.2, 0.7, 5.9, 0.8, 1.2,
];
prices = [
5, 2, 7, 59, 8, 12, 5, 2, 7, 59, 8, 12, 5, 2, 7, 59, 8, 12, 5, 2, 7, 59, 8, 12,
5, 2, 7, 59, 8, 12, 5, 2, 7, 59, 8, 12, 5, 2, 7, 59, 8, 12, 5, 2, 7, 59, 8, 12,
5, 2, 7, 59, 8, 12, 5, 2, 7, 59, 8, 12, 5, 2, 7, 59, 8, 12, 5, 2, 7, 59, 8, 12,
5, 2, 7, 59, 8, 12, 5, 2, 7, 59, 8, 12, 5, 2, 7, 59, 8, 12, 5, 2, 7, 59, 8, 12,
5, 2, 7, 59, 8, 12, 5, 2, 7, 59, 8, 12, 5, 2, 7, 59, 8, 12, 5, 2, 7, 59, 8, 12,
5, 2, 7, 59, 8, 12, 5, 2, 7, 59, 8, 12, 5, 2, 7, 59, 8, 12, 5, 2, 7, 59, 8, 12
];